letting n_nurses=25
letting n_days=7
letting n_shift_types=4
letting max_covers=9
letting t_covers=87
letting covers=[4,9,5,0,6,2,5,0,6,3,7,0,5,4,2,0,4,5,2,0,4,1,4,0,5,2,2,0]
letting prefes=[3,3,3,1,1,2,1,3,3,3,3,1,3,3,3,1,3,3,3,1,3,3,3,1,3,3,3,1,1,3,3,4,4,1,1,3,1,3,3,4,1,3,3,4,1,3,3,4,1,3,3,4,1,3,3,4,3,3,3,1,1,1,2,3,3,3,3,1,3,3,3,1,3,3,3,1,3,3,3,1,3,3,3,1,1,3,3,4,1,1,1,3,1,3,3,4,1,3,3,4,1,3,3,4,1,3,3,4,1,3,3,4,3,3,3,4,1,1,2,3,3,3,3,4,3,3,3,4,3,3,3,4,3,3,3,4,3,3,3,4,3,1,3,4,4,1,1,2,3,1,3,4,3,1,3,4,3,1,3,4,3,1,3,4,3,1,3,4,1,3,3,4,1,1,1,2,1,3,3,4,1,3,3,4,1,3,3,4,1,3,3,4,1,3,3,4,3,3,3,4,1,1,2,3,3,3,3,4,3,3,3,4,3,3,3,4,3,3,3,4,3,3,3,4,3,3,2,4,1,1,1,3,3,3,2,4,3,3,2,4,3,3,2,4,3,3,2,4,3,3,2,4,3,3,3,4,1,1,2,3,3,3,3,4,3,3,3,4,3,3,3,4,3,3,3,4,3,3,3,4,3,3,3,4,1,1,1,3,3,3,3,4,3,3,3,4,3,3,3,4,3,3,3,4,3,3,3,4,3,3,2,1,1,1,1,3,3,3,2,1,3,3,2,1,3,3,2,1,3,3,2,1,3,3,2,1,3,1,2,4,1,2,1,3,3,1,2,4,3,1,2,4,3,1,2,4,3,1,2,4,3,1,2,4,3,1,2,4,4,1,1,3,3,1,2,4,3,1,2,4,3,1,2,4,3,1,2,4,3,1,2,4,1,3,3,4,1,1,1,3,1,3,3,4,1,3,3,4,1,3,3,4,1,3,3,4,1,3,3,4,3,1,3,4,1,1,1,2,3,1,3,4,3,1,3,4,3,1,3,4,3,1,3,4,3,1,3,4,3,3,3,4,1,2,1,3,3,3,3,4,3,3,3,4,3,3,3,4,3,3,3,4,3,3,3,4,1,3,2,4,1,2,1,3,1,3,2,4,1,3,2,4,1,3,2,4,1,3,2,4,1,3,2,4,3,3,3,4,1,1,1,3,3,3,3,4,3,3,3,4,3,3,3,4,3,3,3,4,3,3,3,4,3,3,3,4,1,1,1,3,3,3,3,4,3,3,3,4,3,3,3,4,3,3,3,4,3,3,3,4,3,3,3,4,1,2,1,3,3,3,3,4,3,3,3,4,3,3,3,4,3,3,3,4,3,3,3,4,3,1,3,4,1,1,2,3,3,1,3,4,3,1,3,4,3,1,3,4,3,1,3,4,3,1,3,4,3,3,3,1,4,1,1,2,3,3,3,1,3,3,3,1,3,3,3,1,3,3,3,1,3,3,3,1,3,3,3,4,4,1,1,2,3,3,3,4,3,3,3,4,3,3,3,4,3,3,3,4,3,3,3,4,3,3,3,1,1,1,1,3,3,3,3,1,3,3,3,1,3,3,3,1,3,3,3,1,3,3,3,1]
letting ub =  394
